c Reduced graph for mug88_1 generated by Cyril Grelier
p edge 88 146
e 1 2
e 1 6
e 1 7
e 1 66
e 2 4
e 2 45
e 2 55
e 3 5
e 3 15
e 3 29
e 3 35
e 4 11
e 4 14
e 4 30
e 5 6
e 5 61
e 5 62
e 6 37
e 6 38
e 7 60
e 7 78
e 7 79
e 8 9
e 8 27
e 8 29
e 8 56
e 9 29
e 9 31
e 9 32
e 10 30
e 10 42
e 10 43
e 10 49
e 11 30
e 11 50
e 11 51
e 12 13
e 12 31
e 12 46
e 12 69
e 13 31
e 13 33
e 13 34
e 14 35
e 14 47
e 14 48
e 15 23
e 15 40
e 15 41
e 16 17
e 16 42
e 16 67
e 16 68
e 17 18
e 17 42
e 17 57
e 18 43
e 18 44
e 18 63
e 19 20
e 19 43
e 19 58
e 19 59
e 20 21
e 20 87
e 20 88
e 21 44
e 21 64
e 21 65
e 22 45
e 22 46
e 22 70
e 22 71
e 23 26
e 23 47
e 23 54
e 24 49
e 24 50
e 24 52
e 24 74
e 25 51
e 25 52
e 25 75
e 25 76
e 26 53
e 26 81
e 26 82
e 27 55
e 27 73
e 27 83
e 28 72
e 28 73
e 28 84
e 28 85
e 32 33
e 32 34
e 33 34
e 35 39
e 36 37
e 36 38
e 36 77
e 37 38
e 39 40
e 39 41
e 40 41
e 44 86
e 45 46
e 47 48
e 48 53
e 49 50
e 51 52
e 53 54
e 54 80
e 55 56
e 56 72
e 57 58
e 57 59
e 58 59
e 60 61
e 60 62
e 61 62
e 63 64
e 63 65
e 64 65
e 66 67
e 66 68
e 67 68
e 69 70
e 69 71
e 70 71
e 72 73
e 74 75
e 74 76
e 75 76
e 77 78
e 77 79
e 78 79
e 80 81
e 80 82
e 81 82
e 83 84
e 83 85
e 84 85
e 86 87
e 86 88
e 87 88
